benchmark_instances/dzn_benchmark_instances/benchmark_instance_7-1.dzn
% Input: sequence of points
seq_points = [|2,2
              |3,2
              |4,2
              |5,2
              |3,4
              |4,4
              |2,5
              |3,5
              |4,5
              |5,5
              |3,0
              |4,0
              |7,0
              |7,7
              |0,7
              |0,0
             |];

num_points = 16;
