benchmark_instances/lp_benchmark_instances/benchmark_instance_7-1.lp
% Input: sequence of points
point(2,2).
point(3,2).
point(4,2).
point(5,2).
point(3,4).
point(4,4).
point(2,5).
point(3,5).
point(4,5).
point(5,5).
point(3,0).
point(4,0).
point(7,0).
point(7,7).
point(0,7).
point(0,0).
